# Objective value = 2.9836766418557460e+02
x[0] 0
x[1] 1
x[2] 0
x[3] 0
x[4] 0
x[5] 1
x[6] 0
x[7] 0
x[8] 0
x[9] 1
x[10] 0
x[11] 1
x[12] 1
x[13] 1
x[14] 0
x[15] 1
x[16] 0
x[17] 1
x[18] 1
x[19] 1
x[20] 1
x[21] 0
x[22] 1
x[23] 0
x[24] 0
x[25] 0
x[26] 0
x[27] 1
x[28] 0
x[29] 0
x[30] 0
x[31] 0
x[32] 1
x[33] 1
x[34] 1
x[35] 1
x[36] 1
x[37] 0
x[38] 0
x[39] 0
x[40] 1
x[41] 1
x[42] 1
x[43] 1
x[44] 1
x[45] 1
x[46] 0
x[47] 0
x[48] 0
x[49] 1
x[50] 1
x[51] 1
x[52] 0
x[53] 1
x[54] 1
x[55] 0
x[56] 1
x[57] 0
x[58] 1
x[59] 1
x[60] 0
x[61] 1
x[62] 0
x[63] 0
x[64] 0
x[65] 0
x[66] 0
x[67] 0
x[68] 0
x[69] 1
x[70] 1
x[71] 0
x[72] 1
x[73] 0
x[74] 1
x[75] 0
x[76] 0
x[77] 0
x[78] 0
x[79] 1
x[80] 0
x[81] 1
x[82] 0
x[83] 0
x[84] 0
x[85] 1
x[86] 1
x[87] 1
x[88] 0
x[89] 1
x[90] 1
x[91] 1
x[92] 0
x[93] 0
x[94] 1
x[95] 0
x[96] 0
x[97] 0
x[98] 0
x[99] 1
x[100] 1
x[101] 1
x[102] 0
x[103] 0
x[104] 0
x[105] 1
x[106] 1
x[107] 1
x[108] 0
x[109] 1
x[110] 0
x[111] 1
x[112] 1
x[113] 0
x[114] 0
x[115] 0
x[116] 1
x[117] 0
x[118] 0
x[119] 0
x[120] 0
x[121] 1
x[122] 1
x[123] 1
x[124] 0
x[125] 0
x[126] 1
x[127] 0
x[128] 0
x[129] 0
x[130] 1
x[131] 0
x[132] 1
x[133] 0
x[134] 1
x[135] 1
x[136] 1
x[137] 1
x[138] 1
x[139] 0
x[140] 1
x[141] 0
x[142] 1
x[143] 0
x[144] 1
x[145] 0
x[146] 0
x[147] 1
x[148] 0
x[149] 0
x[150] 1
x[151] 1
x[152] 1
x[153] 0
x[154] 1
x[155] 0
x[156] 0
x[157] 1
x[158] 0
x[159] 1
x[160] 1
x[161] 1
x[162] 0
x[163] 1
x[164] 1
x[165] 1
x[166] 1
x[167] 0
x[168] 1
x[169] 0
x[170] 1
x[171] 1
x[172] 0
x[173] 0
x[174] 1
x[175] 0
x[176] 1
x[177] 0
x[178] 1
x[179] 0
x[180] 0
x[181] 1
x[182] 1
x[183] 0
x[184] 1
x[185] 1
x[186] 0
x[187] 0
x[188] 0
x[189] 1
x[190] 0
x[191] 0
x[192] 0
x[193] 1
x[194] 1
x[195] 0
x[196] 1
x[197] 0
x[198] 1
x[199] 1
x[200] 0
x[201] 1
x[202] 0
x[203] 1
x[204] 0
x[205] 0
x[206] 1
x[207] 0
x[208] 1
x[209] 0
x[210] 1
x[211] 1
x[212] 1
x[213] 1
x[214] 1
x[215] 0
x[216] 1
x[217] 1
x[218] 1
x[219] 0
x[220] 0
x[221] 0
x[222] 0
x[223] 0
x[224] 1
x[225] 0
x[226] 0
x[227] 0
x[228] 0
x[229] 0
x[230] 1
x[231] 0
x[232] 1
x[233] 0
x[234] 0
x[235] 1
x[236] 0
x[237] 1
x[238] 0
x[239] 1
x[240] 0
x[241] 1
x[242] 0
x[243] 1
x[244] 0
x[245] 0
x[246] 1
x[247] 1
x[248] 0
x[249] 1
x[250] 0
x[251] 0
x[252] 1
x[253] 0
x[254] 0
x[255] 1
x[256] 0
x[257] 1
x[258] 0
x[259] 0
x[260] 0
x[261] 0
x[262] 0
x[263] 0
x[264] 1
x[265] 0
x[266] 1
x[267] 0
x[268] 0
x[269] 0
x[270] 0
x[271] 0
x[272] 0
x[273] 1
x[274] 0
x[275] 1
x[276] 0
x[277] 1
x[278] 0
x[279] 1
x[280] 1
x[281] 0
x[282] 1
x[283] 0
x[284] 1
x[285] 0
x[286] 0
x[287] 0
x[288] 1
x[289] 1
x[290] 1
x[291] 1
x[292] 1
x[293] 0
x[294] 0
x[295] 1
x[296] 0
x[297] 0
x[298] 0
x[299] 1
x[300] 0
x[301] 0
x[302] 0
x[303] 0
x[304] 0
x[305] 1
x[306] 1
x[307] 0
x[308] 1
x[309] 0
x[310] 1
x[311] 0
x[312] 1
x[313] 0
x[314] 1
x[315] 1
x[316] 1
x[317] 1
x[318] 1
x[319] 1
x[320] 0
x[321] 0
x[322] 0
x[323] 1
x[324] 1
x[325] 1
x[326] 0
x[327] 1
x[328] 0
x[329] 1
x[330] 1
x[331] 1
x[332] 1
x[333] 1
x[334] 0
x[335] 0
x[336] 0
x[337] 0
x[338] 1
x[339] 0
x[340] 0
x[341] 0
x[342] 1
x[343] 1
x[344] 0
x[345] 1
x[346] 1
x[347] 0
x[348] 0
x[349] 0
x[350] 0
x[351] 1
x[352] 0
x[353] 0
x[354] 0
x[355] 1
x[356] 1
x[357] 1
x[358] 1
x[359] 1
x[360] 1
x[361] 1
x[362] 1
x[363] 0
x[364] 1
x[365] 1
x[366] 1
x[367] 1
x[368] 0
x[369] 0
x[370] 1
x[371] 0
x[372] 0
x[373] 1
x[374] 0
x[375] 0
x[376] 0
x[377] 1
x[378] 1
x[379] 0
x[380] 0
x[381] 0
x[382] 1
x[383] 1
x[384] 1
x[385] 1
x[386] 0
x[387] 0
x[388] 1
x[389] 1
x[390] 0
x[391] 1
x[392] 1
x[393] 0
x[394] 0
x[395] 0
x[396] 0
x[397] 0
x[398] 1
x[399] 0
x[400] 0
x[401] 1
x[402] 1
x[403] 0
x[404] 1
x[405] 1
x[406] 0
x[407] 1
x[408] 0
x[409] 1
x[410] 1
x[411] 0
x[412] 1
x[413] 1
x[414] 0
x[415] 1
x[416] 1
x[417] 0
x[418] 1
x[419] 1
x[420] 1
x[421] 0
x[422] 0
x[423] 0
x[424] 0
x[425] 1
x[426] 0
x[427] 0
x[428] 0
x[429] 1
x[430] 1
x[431] 0
x[432] 1
x[433] 1
x[434] 0
x[435] 1
x[436] 0
x[437] 0
x[438] 1
x[439] 0
x[440] 0
x[441] 0
x[442] 0
x[443] 1
x[444] 1
x[445] 1
x[446] 0
x[447] 0
x[448] 0
x[449] 0
x[450] 1
x[451] 0
x[452] 1
x[453] 0
x[454] 0
x[455] 1
x[456] 1
x[457] 0
x[458] 0
x[459] 1
x[460] 0
x[461] 1
x[462] 1
x[463] 1
x[464] 1
x[465] 1
x[466] 0
x[467] 1
x[468] 1
x[469] 1
x[470] 1
x[471] 1
x[472] 1
x[473] 1
x[474] 1
x[475] 1
x[476] 1
x[477] 1
x[478] 1
x[479] 1
x[480] 0
x[481] 1
x[482] 0
x[483] 1
x[484] 0
x[485] 1
x[486] 0
x[487] 1
x[488] 0
x[489] 0
x[490] 0
x[491] 1
x[492] 0
x[493] 0
x[494] 0
x[495] 0
x[496] 1
x[497] 1
x[498] 0
x[499] 0
x[500] 1
x[501] 1
x[502] 0
x[503] 0
x[504] 1
x[505] 0
x[506] 1
x[507] 0
x[508] 1
x[509] 0
x[510] 0
x[511] 0
x[512] 1
x[513] 1
x[514] 0
x[515] 1
x[516] 0
x[517] 0
x[518] 1
x[519] 1
x[520] 0
x[521] 1
x[522] 0
x[523] 0
x[524] 0
x[525] 1
x[526] 1
x[527] 1
x[528] 0
x[529] 1
x[530] 1
x[531] 1
x[532] 0
x[533] 1
x[534] 1
x[535] 1
x[536] 0
x[537] 1
x[538] 1
x[539] 0
x[540] 1
x[541] 1
x[542] 1
x[543] 1
x[544] 1
x[545] 1
x[546] 1
x[547] 0
x[548] 0
x[549] 0
x[550] 0
x[551] 1
x[552] 1
x[553] 0
x[554] 1
x[555] 1
x[556] 1
x[557] 0
x[558] 1
x[559] 0
x[560] 1
x[561] 1
x[562] 0
x[563] 1
x[564] 1
x[565] 1
x[566] 1
x[567] 1
x[568] 0
x[569] 0
x[570] 1
x[571] 1
x[572] 1
x[573] 1
x[574] 0
x[575] 0
x[576] 1
x[577] 0
x[578] 1
x[579] 0
x[580] 1
x[581] 0
x[582] 1
x[583] 1
x[584] 0
x[585] 0
x[586] 1
x[587] 0
x[588] 1
x[589] 1
x[590] 0
x[591] 1
x[592] 0
x[593] 1
x[594] 0
x[595] 1
x[596] 0
x[597] 1
x[598] 0
x[599] 1
x[600] 1
x[601] 0
x[602] 0
x[603] 1
x[604] 0
x[605] 0
x[606] 0
x[607] 1
x[608] 0
x[609] 0
x[610] 0
x[611] 1
x[612] 0
x[613] 0
x[614] 1
x[615] 1
x[616] 0
x[617] 0
x[618] 1
x[619] 0
x[620] 1
x[621] 0
x[622] 1
x[623] 1
x[624] 1
x[625] 1
x[626] 1
x[627] 0
x[628] 0
x[629] 1
x[630] 0
x[631] 1
x[632] 1
x[633] 1
x[634] 1
x[635] 1
x[636] 1
x[637] 0
x[638] 1
x[639] 0
x[640] 1
x[641] 1
x[642] 0
x[643] 1
x[644] 1
x[645] 1
x[646] 0
x[647] 1
x[648] 0
x[649] 1
x[650] 0
x[651] 1
x[652] 0
x[653] 0
x[654] 0
x[655] 1
x[656] 1
x[657] 0
x[658] 1
x[659] 1
x[660] 0
x[661] 0
x[662] 1
x[663] 1
x[664] 0
x[665] 1
x[666] 0
x[667] 1
x[668] 0
x[669] 1
x[670] 0
x[671] 0
x[672] 0
x[673] 1
x[674] 1
x[675] 0
x[676] 1
x[677] 1
x[678] 1
x[679] 0
x[680] 0
x[681] 1
x[682] 0
x[683] 0
x[684] 1
x[685] 1
x[686] 1
x[687] 1
x[688] 1
x[689] 0
x[690] 1
x[691] 0
x[692] 1
x[693] 1
x[694] 0
x[695] 0
x[696] 0
x[697] 0
x[698] 0
x[699] 1
x[700] 0
x[701] 0
x[702] 0
x[703] 0
x[704] 1
x[705] 1
x[706] 1
x[707] 0
x[708] 1
x[709] 0
x[710] 0
x[711] 0
x[712] 0
x[713] 1
x[714] 1
x[715] 1
x[716] 0
x[717] 0
x[718] 1
x[719] 1
x[720] 0
x[721] 1
x[722] 0
x[723] 1
x[724] 0
x[725] 0
x[726] 0
x[727] 1
x[728] 0
x[729] 0
x[730] 0
x[731] 0
x[732] 1
x[733] 0
x[734] 1
x[735] 0
x[736] 0
x[737] 1
x[738] 0
x[739] 0
x[740] 0
x[741] 0
x[742] 0
x[743] 0
x[744] 0
x[745] 1
x[746] 0
x[747] 1
x[748] 0
x[749] 1
x[750] 1
x[751] 0
x[752] 0
x[753] 0
x[754] 1
x[755] 0
x[756] 1
x[757] 1
x[758] 1
x[759] 1
x[760] 0
x[761] 0
x[762] 1
x[763] 0
x[764] 0
x[765] 1
x[766] 0
x[767] 0
x[768] 0
x[769] 0
x[770] 0
x[771] 0
x[772] 1
x[773] 1
x[774] 1
x[775] 0
x[776] 1
x[777] 1
x[778] 0
x[779] 1
x[780] 0
x[781] 0
x[782] 1
x[783] 0
x[784] 0
x[785] 0
x[786] 0
x[787] 0
x[788] 0
x[789] 1
x[790] 1
x[791] 1
x[792] 0
x[793] 1
x[794] 0
x[795] 1
x[796] 0
x[797] 1
x[798] 0
x[799] 1
x[800] 0
x[801] 0
x[802] 0
x[803] 1
x[804] 1
x[805] 1
x[806] 1
x[807] 1
x[808] 0
x[809] 0
x[810] 1
x[811] 1
x[812] 1
x[813] 0
x[814] 0
x[815] 1
x[816] 1
x[817] 0
x[818] 1
x[819] 1
x[820] 1
x[821] 1
x[822] 0
x[823] 0
x[824] 0
x[825] 1
x[826] 1
x[827] 0
x[828] 0
x[829] 1
x[830] 0
x[831] 1
x[832] 0
x[833] 1
x[834] 0
x[835] 1
x[836] 1
x[837] 1
x[838] 1
x[839] 0
x[840] 0
x[841] 0
x[842] 1
x[843] 0
x[844] 1
x[845] 0
x[846] 1
x[847] 1
x[848] 0
x[849] 1
x[850] 0
x[851] 0
x[852] 1
x[853] 1
x[854] 0
x[855] 1
x[856] 0
x[857] 0
x[858] 0
x[859] 1
x[860] 1
x[861] 1
x[862] 1
x[863] 1
x[864] 1
x[865] 1
x[866] 0
x[867] 0
x[868] 0
x[869] 1
x[870] 0
x[871] 1
x[872] 0
x[873] 0
x[874] 1
x[875] 1
x[876] 1
x[877] 0
x[878] 1
x[879] 0
x[880] 1
x[881] 0
x[882] 1
x[883] 1
x[884] 0
x[885] 0
x[886] 0
x[887] 1
x[888] 1
x[889] 1
x[890] 0
x[891] 0
x[892] 0
x[893] 0
x[894] 1
x[895] 0
x[896] 0
x[897] 0
x[898] 0
x[899] 0
x[900] 1
x[901] 0
x[902] 1
x[903] 1
x[904] 1
x[905] 0
x[906] 0
x[907] 0
x[908] 0
x[909] 0
x[910] 0
x[911] 0
x[912] 1
x[913] 0
x[914] 0
x[915] 1
x[916] 0
x[917] 0
x[918] 0
x[919] 1
x[920] 1
x[921] 0
x[922] 0
x[923] 0
x[924] 1
x[925] 0
x[926] 1
x[927] 1
x[928] 1
x[929] 0
x[930] 1
x[931] 0
x[932] 0
x[933] 1
x[934] 0
x[935] 1
x[936] 0
x[937] 1
x[938] 0
x[939] 0
x[940] 0
x[941] 0
x[942] 1
x[943] 1
x[944] 1
x[945] 1
x[946] 0
x[947] 1
x[948] 0
x[949] 0
x[950] 1
x[951] 1
x[952] 0
x[953] 0
x[954] 0
x[955] 1
x[956] 0
x[957] 0
x[958] 0
x[959] 0
x[960] 0
x[961] 1
x[962] 1
x[963] 0
x[964] 0
x[965] 0
x[966] 0
x[967] 1
x[968] 1
x[969] 1
x[970] 0
x[971] 1
x[972] 0
x[973] 1
x[974] 1
x[975] 1
x[976] 1
x[977] 0
x[978] 1
x[979] 0
x[980] 0
x[981] 0
x[982] 1
x[983] 1
x[984] 1
x[985] 1
x[986] 0
x[987] 1
x[988] 0
x[989] 1
x[990] 0
x[991] 0
x[992] 0
x[993] 1
x[994] 0
x[995] 1
x[996] 1
x[997] 0
x[998] 1
x[999] 0
